language ESSENCE' 1.0

letting n_classes be 21
letting n_options be 5
letting n_cars be 200
letting quantity_Function1D be [26, 1, 10, 4, 1, 3, 3, 3, 9, 4, 8, 2, 59, 1, 3, 3, 32, 19, 1, 7, 1; int(1..21)]
letting usage_RelationAsSet_Explicit_1 be
        [1, 2, 2, 2, 3, 3, 4, 4, 5, 5, 6, 6, 7, 7, 8, 8, 8, 9, 9, 10, 10, 10, 11, 11, 12, 12, 12, 13, 14, 14, 15, 15,
         16, 16, 17, 18, 19, 19, 19, 20, 21, 21, 21;
             int(1..43)]
letting usage_RelationAsSet_Explicit_2 be
        [5, 2, 3, 5, 2, 4, 1, 3, 4, 5, 2, 3, 3, 5, 1, 2, 3, 1, 2, 2, 3, 4, 3, 4, 1, 2, 5, 2, 1, 5, 1, 4, 2, 5, 1, 4, 1,
         3, 4, 3, 1, 2, 4;
             int(1..43)]
letting blksize_Function1D be [2, 3, 3, 5, 5; int(1..5)]
letting maxcars_Function1D be [1, 2, 1, 2, 1; int(1..5)]
letting fin1 be 21
letting fin2 be 59
letting fin3 be 5
letting fin4 be 2
letting fin5 be 5
letting fin6 be 5
letting fin7 be 43
